NAME          
ROWS
 N  OBJ
 L  c1
 L  c2
 L  c3
 L  c4
 L  c5
COLUMNS
    MARKER    'MARKER'                 'INTORG'
    x[1]      c1        187
    x[1]      c2        410
    x[1]      c3        239
    x[1]      c4        799
    x[1]      c5        364
    x[1]      OBJ       -304
    x[2]      c1        431
    x[2]      c2        223
    x[2]      c3        46
    x[2]      c4        519
    x[2]      c5        965
    x[2]      OBJ       -977
    x[3]      c1        545
    x[3]      c2        708
    x[3]      c3        731
    x[3]      c4        968
    x[3]      c5        239
    x[3]      OBJ       -957
    x[4]      c1        282
    x[4]      c2        125
    x[4]      c3        537
    x[4]      c4        950
    x[4]      c5        512
    x[4]      OBJ       -942
    x[5]      c1        48
    x[5]      c2        951
    x[5]      c3        473
    x[5]      c4        69
    x[5]      c5        215
    x[5]      OBJ       -152
    x[6]      c1        812
    x[6]      c2        317
    x[6]      c3        167
    x[6]      c4        907
    x[6]      c5        878
    x[6]      OBJ       -380
    x[7]      c1        274
    x[7]      c2        688
    x[7]      c3        961
    x[7]      c4        505
    x[7]      c5        928
    x[7]      OBJ       -350
    x[8]      c1        307
    x[8]      c2        357
    x[8]      c3        879
    x[8]      c4        62
    x[8]      c5        774
    x[8]      OBJ       -76
    x[9]      c1        218
    x[9]      c2        264
    x[9]      c3        412
    x[9]      c4        223
    x[9]      c5        625
    x[9]      OBJ       -267
    x[10]     c1        269
    x[10]     c2        263
    x[10]     c3        506
    x[10]     c4        339
    x[10]     c5        262
    x[10]     OBJ       -638
    x[11]     c1        344
    x[11]     c2        776
    x[11]     c3        156
    x[11]     c4        665
    x[11]     c5        789
    x[11]     OBJ       -283
    x[12]     c1        858
    x[12]     c2        976
    x[12]     c3        256
    x[12]     c4        574
    x[12]     c5        326
    x[12]     OBJ       -255
    x[13]     c1        267
    x[13]     c2        281
    x[13]     c3        732
    x[13]     c4        973
    x[13]     c5        793
    x[13]     OBJ       -87
    x[14]     c1        417
    x[14]     c2        620
    x[14]     c3        658
    x[14]     c4        738
    x[14]     c5        373
    x[14]     OBJ       -534
    x[15]     c1        300
    x[15]     c2        561
    x[15]     c3        446
    x[15]     c4        240
    x[15]     c5        200
    x[15]     OBJ       -431
    x[16]     c1        378
    x[16]     c2        403
    x[16]     c3        672
    x[16]     c4        332
    x[16]     c5        86
    x[16]     OBJ       -835
    x[17]     c1        557
    x[17]     c2        727
    x[17]     c3        168
    x[17]     c4        757
    x[17]     c5        450
    x[17]     OBJ       -480
    x[18]     c1        253
    x[18]     c2        967
    x[18]     c3        93
    x[18]     c4        66
    x[18]     c5        453
    x[18]     OBJ       -511
    x[19]     c1        354
    x[19]     c2        933
    x[19]     c3        43
    x[19]     c4        231
    x[19]     c5        784
    x[19]     OBJ       -598
    x[20]     c1        156
    x[20]     c2        486
    x[20]     c3        72
    x[20]     c4        1
    x[20]     c5        129
    x[20]     OBJ       -432
    x[21]     c1        510
    x[21]     c2        441
    x[21]     c3        493
    x[21]     c4        376
    x[21]     c5        233
    x[21]     OBJ       -686
    x[22]     c1        336
    x[22]     c2        911
    x[22]     c3        198
    x[22]     c4        20
    x[22]     c5        466
    x[22]     OBJ       -592
    x[23]     c1        841
    x[23]     c2        889
    x[23]     c3        924
    x[23]     c4        974
    x[23]     c5        154
    x[23]     OBJ       -346
    x[24]     c1        428
    x[24]     c2        968
    x[24]     c3        746
    x[24]     c4        837
    x[24]     c5        972
    x[24]     OBJ       -410
    x[25]     c1        89
    x[25]     c2        619
    x[25]     c3        23
    x[25]     c4        84
    x[25]     c5        415
    x[25]     OBJ       -314
    x[26]     c1        175
    x[26]     c2        602
    x[26]     c3        913
    x[26]     c4        123
    x[26]     c5        296
    x[26]     OBJ       -481
    x[27]     c1        332
    x[27]     c2        931
    x[27]     c3        323
    x[27]     c4        768
    x[27]     c5        139
    x[27]     OBJ       -114
    x[28]     c1        552
    x[28]     c2        538
    x[28]     c3        341
    x[28]     c4        395
    x[28]     c5        91
    x[28]     OBJ       -200
    x[29]     c1        889
    x[29]     c2        795
    x[29]     c3        234
    x[29]     c4        304
    x[29]     c5        451
    x[29]     OBJ       -471
    x[30]     c1        939
    x[30]     c2        513
    x[30]     c3        651
    x[30]     c4        680
    x[30]     c5        113
    x[30]     OBJ       -878
    x[31]     c1        495
    x[31]     c2        900
    x[31]     c3        887
    x[31]     c4        699
    x[31]     c5        747
    x[31]     OBJ       -528
    x[32]     c1        512
    x[32]     c2        468
    x[32]     c3        809
    x[32]     c4        14
    x[32]     c5        596
    x[32]     OBJ       -127
    x[33]     c1        811
    x[33]     c2        914
    x[33]     c3        395
    x[33]     c4        235
    x[33]     c5        137
    x[33]     OBJ       -361
    x[34]     c1        295
    x[34]     c2        655
    x[34]     c3        380
    x[34]     c4        86
    x[34]     c5        347
    x[34]     OBJ       -426
    x[35]     c1        372
    x[35]     c2        561
    x[35]     c3        233
    x[35]     c4        102
    x[35]     c5        509
    x[35]     OBJ       -788
    x[36]     c1        44
    x[36]     c2        950
    x[36]     c3        627
    x[36]     c4        405
    x[36]     c5        121
    x[36]     OBJ       -969
    x[37]     c1        372
    x[37]     c2        947
    x[37]     c3        515
    x[37]     c4        154
    x[37]     c5        867
    x[37]     OBJ       -785
    x[38]     c1        953
    x[38]     c2        44
    x[38]     c3        281
    x[38]     c4        665
    x[38]     c5        996
    x[38]     OBJ       -630
    x[39]     c1        861
    x[39]     c2        256
    x[39]     c3        548
    x[39]     c4        383
    x[39]     c5        244
    x[39]     OBJ       -337
    x[40]     c1        663
    x[40]     c2        259
    x[40]     c3        35
    x[40]     c4        902
    x[40]     c5        996
    x[40]     OBJ       -495
    x[41]     c1        927
    x[41]     c2        176
    x[41]     c3        475
    x[41]     c4        941
    x[41]     c5        85
    x[41]     OBJ       -198
    x[42]     c1        550
    x[42]     c2        493
    x[42]     c3        83
    x[42]     c4        305
    x[42]     c5        84
    x[42]     OBJ       -405
    x[43]     c1        849
    x[43]     c2        319
    x[43]     c3        237
    x[43]     c4        396
    x[43]     c5        379
    x[43]     OBJ       -445
    x[44]     c1        122
    x[44]     c2        113
    x[44]     c3        536
    x[44]     c4        647
    x[44]     c5        987
    x[44]     OBJ       -286
    x[45]     c1        962
    x[45]     c2        112
    x[45]     c3        711
    x[45]     c4        923
    x[45]     c5        148
    x[45]     OBJ       -408
    x[46]     c1        261
    x[46]     c2        564
    x[46]     c3        807
    x[46]     c4        87
    x[46]     c5        722
    x[46]     OBJ       -279
    x[47]     c1        353
    x[47]     c2        493
    x[47]     c3        128
    x[47]     c4        593
    x[47]     c5        748
    x[47]     OBJ       -525
    x[48]     c1        505
    x[48]     c2        739
    x[48]     c3        884
    x[48]     c4        66
    x[48]     c5        117
    x[48]     OBJ       -780
    x[49]     c1        530
    x[49]     c2        617
    x[49]     c3        235
    x[49]     c4        195
    x[49]     c5        909
    x[49]     OBJ       -760
    x[50]     c1        679
    x[50]     c2        493
    x[50]     c3        965
    x[50]     c4        247
    x[50]     c5        15
    x[50]     OBJ       -243
RHS
    rhs       c1        11732
    rhs       c2        14158
    rhs       c3        11432
    rhs       c4        11262
    rhs       c5        11614
RANGES
BOUNDS
 BV bounds    x[1]
 BV bounds    x[2]
 BV bounds    x[3]
 BV bounds    x[4]
 BV bounds    x[5]
 BV bounds    x[6]
 BV bounds    x[7]
 BV bounds    x[8]
 BV bounds    x[9]
 BV bounds    x[10]
 BV bounds    x[11]
 BV bounds    x[12]
 BV bounds    x[13]
 BV bounds    x[14]
 BV bounds    x[15]
 BV bounds    x[16]
 BV bounds    x[17]
 BV bounds    x[18]
 BV bounds    x[19]
 BV bounds    x[20]
 BV bounds    x[21]
 BV bounds    x[22]
 BV bounds    x[23]
 BV bounds    x[24]
 BV bounds    x[25]
 BV bounds    x[26]
 BV bounds    x[27]
 BV bounds    x[28]
 BV bounds    x[29]
 BV bounds    x[30]
 BV bounds    x[31]
 BV bounds    x[32]
 BV bounds    x[33]
 BV bounds    x[34]
 BV bounds    x[35]
 BV bounds    x[36]
 BV bounds    x[37]
 BV bounds    x[38]
 BV bounds    x[39]
 BV bounds    x[40]
 BV bounds    x[41]
 BV bounds    x[42]
 BV bounds    x[43]
 BV bounds    x[44]
 BV bounds    x[45]
 BV bounds    x[46]
 BV bounds    x[47]
 BV bounds    x[48]
 BV bounds    x[49]
 BV bounds    x[50]
ENDATA
